(set-logic QF_UF)
(declare-fun A0 () Bool)
(declare-fun A1 () Bool)
(declare-fun A2 () Bool)
(declare-fun A3 () Bool)
(declare-fun A4 () Bool)
(declare-fun A6 () Bool)
(declare-fun A7 () Bool)
(declare-fun A8 () Bool)
(declare-fun A9 () Bool)
(declare-fun A10 () Bool)
(declare-fun A11 () Bool)
(declare-fun A12 () Bool)
(declare-fun A13 () Bool)
(declare-fun A14 () Bool)
(declare-fun A15 () Bool)
(declare-fun A16 () Bool)
(declare-fun A17 () Bool)
(declare-fun A18 () Bool)
(declare-fun A19 () Bool)
(declare-fun A20 () Bool)
(declare-fun A21 () Bool)
(declare-fun A22 () Bool)
(declare-fun A23 () Bool)
(declare-fun A24 () Bool)
(assert (let ((.def_0 (not A4))) (let ((.def_1 (not A17))) (let ((.def_2 (and .def_1 .def_0))) (let ((.def_3 (not .def_2))) (let ((.def_4 (not A10))) (let ((.def_5 (and A0 .def_4))) (let ((.def_6 (and .def_5 .def_3))) (let ((.def_7 (not A20))) (let ((.def_8 (= A4 .def_7))) (let ((.def_9 (not .def_8))) (let ((.def_10 (or A10 A15))) (let ((.def_11 (or .def_10 .def_9))) (let ((.def_12 (not .def_11))) (let ((.def_13 (or .def_12 .def_6))) (let ((.def_14 (and .def_7 A20))) (let ((.def_15 (not A0))) (let ((.def_16 (not A23))) (let ((.def_17 (and .def_16 .def_15))) (let ((.def_18 (or .def_17 .def_14))) (let ((.def_19 (not .def_18))) (let ((.def_20 (not A11))) (let ((.def_21 (or .def_20 A17))) (let ((.def_22 (not .def_21))) (let ((.def_23 (or A2 A11))) (let ((.def_24 (not .def_23))) (let ((.def_25 (or .def_24 .def_22))) (let ((.def_26 (= .def_25 .def_19))) (let ((.def_27 (or .def_26 .def_13))) (let ((.def_28 (not .def_27))) (let ((.def_29 (not A2))) (let ((.def_30 (not A7))) (let ((.def_31 (or .def_30 .def_29))) (let ((.def_32 (not .def_31))) (let ((.def_33 (and A7 A6))) (let ((.def_34 (and .def_33 .def_32))) (let ((.def_35 (= A21 A3))) (let ((.def_36 (or .def_30 A15))) (let ((.def_37 (not .def_36))) (let ((.def_38 (and .def_37 .def_35))) (let ((.def_39 (not .def_38))) (let ((.def_40 (or .def_39 .def_34))) (let ((.def_41 (not .def_40))) (let ((.def_42 (and A14 A14))) (let ((.def_43 (not .def_42))) (let ((.def_44 (not A13))) (let ((.def_45 (and A8 .def_44))) (let ((.def_46 (and .def_45 .def_43))) (let ((.def_47 (not A8))) (let ((.def_48 (or .def_47 .def_30))) (let ((.def_49 (not .def_48))) (let ((.def_50 (not A21))) (let ((.def_51 (= .def_20 .def_50))) (let ((.def_52 (or .def_51 .def_49))) (let ((.def_53 (or .def_52 .def_46))) (let ((.def_54 (and .def_53 .def_41))) (let ((.def_55 (and .def_54 .def_28))) (let ((.def_56 (not .def_55))) (let ((.def_57 (= .def_16 .def_44))) (let ((.def_58 (not A18))) (let ((.def_59 (and .def_58 A11))) (let ((.def_60 (not .def_59))) (let ((.def_61 (or .def_60 .def_57))) (let ((.def_62 (not A24))) (let ((.def_63 (or A23 .def_62))) (let ((.def_64 (not A14))) (let ((.def_65 (or .def_64 A20))) (let ((.def_66 (not .def_65))) (let ((.def_67 (or .def_66 .def_63))) (let ((.def_68 (and .def_67 .def_61))) (let ((.def_69 (or A23 .def_7))) (let ((.def_70 (or A16 .def_7))) (let ((.def_71 (not .def_70))) (let ((.def_72 (or .def_71 .def_69))) (let ((.def_73 (not .def_72))) (let ((.def_74 (and A0 A4))) (let ((.def_75 (not .def_74))) (let ((.def_76 (= A15 .def_62))) (let ((.def_77 (and .def_76 .def_75))) (let ((.def_78 (or .def_77 .def_73))) (let ((.def_79 (and .def_78 .def_68))) (let ((.def_80 (and .def_0 A11))) (let ((.def_81 (not .def_80))) (let ((.def_82 (and .def_0 .def_7))) (let ((.def_83 (or .def_82 .def_81))) (let ((.def_84 (not .def_83))) (let ((.def_85 (or A3 A19))) (let ((.def_86 (not .def_85))) (let ((.def_87 (not A1))) (let ((.def_88 (or .def_87 .def_1))) (let ((.def_89 (and .def_88 .def_86))) (let ((.def_90 (and .def_89 .def_84))) (let ((.def_91 (not .def_90))) (let ((.def_92 (and .def_1 .def_30))) (let ((.def_93 (not .def_92))) (let ((.def_94 (and A22 A24))) (let ((.def_95 (not .def_94))) (let ((.def_96 (and .def_95 .def_93))) (let ((.def_97 (not A12))) (let ((.def_98 (and A20 .def_97))) (let ((.def_99 (and .def_87 A9))) (let ((.def_100 (or .def_99 .def_98))) (let ((.def_101 (and .def_100 .def_96))) (let ((.def_102 (and .def_101 .def_91))) (let ((.def_103 (and .def_102 .def_79))) (let ((.def_104 (not .def_103))) (let ((.def_105 (and .def_104 .def_56))) (let ((.def_106 (not .def_105))) .def_106))))))))))))))))))))))))))))))))))))))))))))))))))))))))))))))))))))))))))))))))))))))))))))))))))))))))))))
(check-sat)
